c pcminimize - minimizing a CNF with respect to propagation completeness by iterative removing of absorbed clauses.
c Petr Kucera, 2016-2021
c Version 2.7, revision 59, git hash 4910a71, date 2024-07-16 20:17:42 +0200
p cnf 546 1112
244 -251 0
181 -251 0
252 -253 0
-181 -253 0
251 253 -254 0
255 -256 0
25 -256 0
-235 -257 0
-25 -257 0
256 257 -258 0
254 -259 0
258 -259 0
259 -260 0
13 -260 0
235 -261 0
244 -261 0
261 -263 0
262 -263 0
263 -264 0
-13 -264 0
260 264 -265 0
-125 -266 0
207 -266 0
267 -268 0
-207 -268 0
266 268 -269 0
-109 -270 0
189 -270 0
271 -272 0
-189 -272 0
270 272 -273 0
-26 -274 0
-39 -274 0
-64 -274 0
98 -274 0
136 -274 0
154 -274 0
157 -274 0
-174 -274 0
187 -274 0
193 -274 0
-199 -274 0
265 -276 0
269 -276 0
273 -276 0
274 -276 0
275 -276 0
276 -277 0
243 -277 0
258 -278 0
13 -278 0
235 -279 0
279 -280 0
-13 -280 0
278 280 -281 0
273 -282 0
187 -282 0
109 -283 0
283 -284 0
-187 -284 0
282 284 -285 0
285 -286 0
174 -286 0
273 -287 0
187 -287 0
287 -288 0
-174 -288 0
286 288 -289 0
193 -290 0
244 -290 0
281 -291 0
289 -291 0
290 -291 0
291 -292 0
181 -292 0
258 -293 0
252 -293 0
293 -294 0
13 -294 0
261 -295 0
-13 -295 0
294 295 -296 0
273 -297 0
193 -297 0
297 -298 0
187 -298 0
283 -300 0
299 -300 0
300 -301 0
-187 -301 0
298 301 -302 0
302 -303 0
174 -303 0
187 -304 0
193 -304 0
273 -305 0
304 -305 0
305 -306 0
-174 -306 0
303 306 -307 0
296 -308 0
307 -308 0
308 -309 0
-181 -309 0
292 309 -310 0
123 -311 0
-154 -311 0
311 -312 0
199 -312 0
154 -313 0
275 -313 0
313 -314 0
-199 -314 0
312 314 -315 0
-64 -316 0
136 -316 0
157 -316 0
315 -317 0
269 -317 0
316 -317 0
317 -318 0
98 -318 0
64 -319 0
-123 -319 0
154 -319 0
-157 -319 0
-199 -319 0
-207 -319 0
319 -320 0
267 -320 0
320 -322 0
321 -322 0
322 -323 0
-98 -323 0
318 323 -324 0
310 -325 0
324 -325 0
39 -325 0
325 -326 0
26 -326 0
285 -327 0
39 -327 0
327 -328 0
174 -328 0
273 -329 0
187 -329 0
329 -331 0
330 -331 0
331 -332 0
-174 -332 0
328 332 -333 0
333 -334 0
265 -334 0
334 -335 0
193 -335 0
39 -336 0
109 -336 0
174 -336 0
-181 -336 0
-187 -336 0
296 -337 0
336 -337 0
337 -338 0
-193 -338 0
335 338 -339 0
-64 -340 0
98 -340 0
136 -340 0
157 -340 0
339 -341 0
315 -341 0
269 -341 0
340 -341 0
341 -342 0
-26 -342 0
326 342 -343 0
343 -344 0
-243 -344 0
277 344 -345 0
346 -347 0
69 -347 0
-248 -348 0
-69 -348 0
347 348 -349 0
345 -350 0
349 -350 0
350 -352 0
351 -352 0
352 -353 0
14 -353 0
254 -354 0
255 -354 0
354 -355 0
13 -355 0
235 -356 0
244 -356 0
356 -357 0
262 -357 0
357 -358 0
-13 -358 0
355 358 -359 0
359 -360 0
269 -360 0
273 -360 0
274 -360 0
275 -360 0
360 -361 0
243 -361 0
359 -362 0
289 -362 0
362 -363 0
193 -363 0
255 -364 0
252 -364 0
364 -365 0
13 -365 0
356 -366 0
-13 -366 0
365 366 -367 0
109 -368 0
174 -368 0
-181 -368 0
-187 -368 0
367 -369 0
368 -369 0
369 -370 0
-193 -370 0
363 370 -371 0
-64 -372 0
98 -372 0
136 -372 0
269 -373 0
372 -373 0
275 -373 0
373 -374 0
157 -374 0
64 -375 0
-98 -375 0
-123 -375 0
-207 -375 0
321 -376 0
267 -376 0
375 -377 0
376 -377 0
377 -378 0
-157 -378 0
374 378 -379 0
371 -380 0
379 -380 0
39 -380 0
380 -381 0
26 -381 0
333 -382 0
359 -382 0
382 -383 0
193 -383 0
367 -384 0
336 -384 0
384 -385 0
-193 -385 0
383 385 -386 0
386 -387 0
269 -387 0
340 -387 0
275 -387 0
387 -388 0
-26 -388 0
381 388 -389 0
-154 -390 0
199 -390 0
154 -391 0
-199 -391 0
390 391 -392 0
389 -393 0
392 -393 0
393 -394 0
-243 -394 0
361 394 -395 0
25 -396 0
-159 -396 0
-248 -396 0
395 -398 0
396 -398 0
397 -398 0
398 -399 0
-14 -399 0
401 -402 0
402 -404 0
403 -404 0
404 -405 0
162 -405 0
99 -406 0
407 -408 0
-99 -408 0
406 408 -409 0
409 -410 0
-242 -410 0
410 -411 0
-162 -411 0
-2 -413 0
-4 -413 0
21 -413 0
145 -413 0
-147 -413 0
149 -413 0
166 -413 0
414 -418 0
415 -418 0
416 -418 0
417 -418 0
400 -419 0
412 -419 0
418 -419 0
73 -434 0
435 -436 0
436 -437 0
145 -437 0
26 -439 0
438 -439 0
439 -440 0
-145 -440 0
437 440 -441 0
-21 -442 0
16 -442 0
443 -444 0
-16 -444 0
442 444 -445 0
-2 -446 0
-4 -446 0
39 -446 0
147 -446 0
161 -446 0
441 -447 0
445 -447 0
446 -447 0
447 -448 0
166 -448 0
21 -449 0
449 -450 0
4 -450 0
445 -451 0
-4 -451 0
450 451 -452 0
441 -453 0
452 -453 0
453 -454 0
39 -454 0
4 -455 0
21 -455 0
-26 -455 0
455 -456 0
-39 -456 0
454 456 -457 0
-2 -458 0
161 -458 0
459 -460 0
-161 -460 0
458 460 -461 0
461 -462 0
147 -462 0
2 -463 0
-161 -463 0
463 -464 0
-147 -464 0
462 464 -465 0
457 -466 0
465 -466 0
466 -467 0
-166 -467 0
448 467 -468 0
149 -469 0
468 -470 0
469 -470 0
470 -471 0
124 -471 0
-2 -472 0
147 -472 0
161 -472 0
472 -474 0
473 -474 0
474 -475 0
166 -475 0
-2 -476 0
476 -477 0
473 -477 0
477 -478 0
161 -478 0
459 -479 0
479 -480 0
149 -480 0
481 -482 0
2 -482 0
-2 -483 0
482 483 -484 0
484 -485 0
-149 -485 0
480 485 -486 0
486 -487 0
-161 -487 0
478 487 -488 0
488 -489 0
147 -489 0
2 -490 0
-161 -490 0
490 -491 0
473 -491 0
491 -492 0
-147 -492 0
489 492 -493 0
493 -494 0
-166 -494 0
475 494 -495 0
-4 -496 0
39 -496 0
441 -497 0
495 -497 0
445 -497 0
496 -497 0
497 -498 0
-124 -498 0
500 -501 0
5 -501 0
-5 -502 0
13 -504 0
25 -504 0
69 -504 0
98 -504 0
109 -504 0
136 -504 0
181 -504 0
193 -504 0
244 -504 0
505 -515 0
346 -515 0
506 -515 0
401 -515 0
415 -515 0
507 -515 0
508 -515 0
509 -515 0
510 -515 0
255 -515 0
511 -515 0
512 -515 0
513 -515 0
514 -515 0
499 -516 0
503 -516 0
515 -516 0
-64 -523 0
123 -523 0
-154 -523 0
-199 -523 0
242 -523 0
-243 -523 0
-125 -526 0
174 -526 0
-187 -526 0
157 -529 0
207 -529 0
159 -532 0
-73 -542 0
543 -544 0
-7 0
-8 0
9 0
15 0
19 0
20 0
-22 0
-23 0
-27 0
30 0
-31 0
32 0
-33 0
34 0
36 0
38 0
-40 0
-41 0
-43 0
44 0
46 0
49 0
54 0
58 0
-59 0
-60 0
-61 0
63 0
-65 0
66 0
67 0
-68 0
-74 0
-76 0
-86 0
88 0
89 0
-90 0
-92 0
-93 0
-94 0
96 0
100 0
-101 0
102 0
-103 0
104 0
105 0
-106 0
-108 0
111 0
112 0
113 0
-115 0
120 0
121 0
126 0
-130 0
132 0
134 0
-137 0
138 0
-139 0
141 0
-142 0
-143 0
150 0
-151 0
-153 0
-164 0
167 0
168 0
170 0
-171 0
-173 0
-178 0
-180 0
-182 0
185 0
-186 0
-188 0
191 0
192 0
-194 0
195 0
-196 0
-198 0
-200 0
-201 0
202 0
-204 0
-208 0
-209 0
210 0
212 0
-213 0
217 0
218 0
221 0
-223 0
225 0
226 0
-227 0
228 0
-230 0
-231 0
-232 0
233 0
234 0
-236 0
-239 0
240 0
-241 0
247 0
249 0
250 0
-545 546 0
-544 545 0
-541 542 0
-540 541 0
-156 536 0
-152 535 0
-56 534 0
-533 534 0
-532 533 0
160 532 0
118 532 0
-531 533 0
-529 530 0
135 529 0
119 529 0
-528 530 0
-527 528 0
-526 527 0
216 526 0
211 526 0
176 526 0
172 526 0
146 526 0
114 526 0
110 526 0
107 526 0
91 526 0
72 526 0
-71 526 0
47 526 0
-42 526 0
-525 527 0
229 523 0
-215 523 0
-530 531 0
-203 523 0
177 523 0
148 523 0
-131 523 0
-78 523 0
-77 523 0
48 523 0
-522 524 0
-521 522 0
-520 521 0
-519 520 0
-518 519 0
-514 515 0
184 513 0
-512 515 0
169 512 0
-511 515 0
70 510 0
-509 515 0
175 509 0
-536 538 0
79 508 0
-507 515 0
-35 507 0
-506 515 0
-222 506 0
-505 515 0
246 505 0
-504 516 0
-510 515 0
206 504 0
-197 504 0
190 504 0
183 504 0
179 504 0
158 504 0
155 504 0
-140 504 0
133 504 0
-516 517 0
129 504 0
-116 504 0
-97 504 0
82 504 0
-57 504 0
52 504 0
-50 504 0
-37 504 0
-29 504 0
-24 504 0
-18 504 0
-12 504 0
-11 504 0
-6 504 0
-3 504 0
-1 504 0
-502 503 0
5 502 0
-500 501 0
122 500 0
-499 516 0
-426 427 0
-95 511 0
-351 352 0
-453 454 0
145 440 0
24 413 0
-269 276 317 341 360 373 387 0
-328 333 0
-265 276 334 0
-364 365 0
18 413 0
-534 535 0
-365 367 0
-243 277 361 0
-538 539 0
10 413 0
-535 536 0
207 268 319 375 0
-515 516 0
-268 269 0
-331 332 0
-407 408 0
-346 347 515 0
-199 312 390 0
-406 409 0
37 413 0
-405 412 0
203 413 0
-402 404 0
99 401 408 0
-99 401 406 0
-394 395 0
28 523 0
6 413 0
-276 277 0
-393 394 0
-471 499 0
-390 392 0
-98 274 318 340 372 504 0
-389 393 0
-392 393 0
-293 294 0
-388 389 0
-387 388 0
85 540 0
-384 385 0
131 413 0
-380 381 0
-379 380 0
-117 517 0
-485 486 0
-480 486 0
-377 378 0
-245 504 0
-483 484 0
-81 526 0
-372 373 0
-427 428 0
-370 371 0
-366 367 0
-425 427 0
-360 361 0
-381 389 0
-395 398 0
-155 413 0
-359 360 362 382 0
-358 359 0
-17 522 0
-357 358 0
-102 544 0
-409 410 0
-356 357 366 0
-311 312 0
-404 405 0
-355 359 0
-272 273 0
12 423 0
-352 353 0
42 413 0
-257 258 0
-419 420 0
-336 337 384 0
-350 352 0
109 270 271 0
-347 349 0
-309 310 0
166 467 494 0
-353 400 0
161 417 460 463 487 490 0
-400 419 0
-436 437 0
-341 342 0
3 423 0
29 413 0
-486 487 0
-367 369 384 0
-424 425 0
-339 341 0
-338 339 0
-337 338 0
-335 339 0
16 413 444 449 455 0
-401 402 515 0
-466 467 0
-64 319 375 0
163 504 0
-403 404 0
-260 265 0
-123 275 311 523 0
-274 276 360 0
-391 392 0
199 274 314 319 391 523 0
-275 276 313 360 373 387 0
-107 413 0
-187 274 282 287 298 304 329 0
-385 386 0
-418 419 0
-489 493 0
64 274 316 340 372 523 0
-431 432 0
244 252 0
-181 251 262 292 504 0
-343 344 0
-305 306 0
-307 308 0
-508 515 0
-345 350 0
75 523 0
-368 369 0
56 423 0
-375 377 0
215 413 0
-279 280 0
-157 274 316 340 374 529 0
-445 447 451 497 0
-397 398 0
69 348 397 0
-302 303 0
-326 343 0
-262 263 357 0
189 272 283 336 368 504 0
80 504 0
-376 377 0
-303 307 0
-348 349 0
197 413 0
-162 405 526 0
-308 309 0
-310 325 0
-383 386 0
25 257 0
-216 413 0
-297 298 0
-258 259 278 293 0
81 413 0
-271 272 0
-476 477 0
-248 346 0
-270 273 0
84 413 0
-177 413 0
-125 267 0
187 284 301 336 368 526 0
-273 276 282 287 297 305 329 360 0
181 253 262 309 336 368 0
-498 499 0
-25 256 261 279 396 504 0
-235 255 261 279 356 0
-45 413 0
39 274 330 456 0
174 274 288 306 332 0
-82 413 0
-255 256 354 364 515 0
-329 331 0
-52 413 0
-313 314 0
-354 355 0
-264 265 0
136 321 0
125 266 267 526 0
-207 266 529 0
-322 323 0
-256 258 0
243 344 394 523 0
-330 331 0
-2 459 463 482 490 0
50 413 0
-327 328 0
-244 251 252 261 290 356 504 0
-294 296 0
-206 413 0
-261 263 295 0
235 255 257 0
-374 379 0
-183 413 0
-484 485 0
-259 260 0
83 523 0
-13 260 278 294 355 365 504 0
-316 317 0
-396 398 0
-251 254 0
-84 526 0
13 264 280 295 358 366 0
-412 419 0
-189 270 0
-288 289 0
-278 281 0
-224 413 0
-295 296 0
-369 370 0
-154 274 313 319 391 0
-26 326 381 435 439 0
-280 281 0
-290 291 0
-382 383 0
-296 308 337 0
87 504 0
-281 291 0
-340 341 387 0
-149 413 469 473 480 0
-282 285 0
-332 333 0
127 481 0
-300 301 0
-283 284 300 0
-284 285 0
-491 492 0
-285 286 327 0
248 346 348 396 0
-373 374 0
-301 302 0
-10 523 0
2 413 446 458 459 472 476 483 0
193 299 338 370 385 0
-286 289 0
-304 305 0
-193 274 290 297 299 304 335 363 383 504 0
-342 343 0
45 526 0
-315 317 341 0
-220 520 0
-287 288 0
-314 315 0
162 411 0
-457 466 0
-289 291 362 0
-291 292 0
-344 345 0
-306 307 0
-292 310 0
-349 350 0
-252 253 293 364 0
11 413 0
57 413 0
154 311 390 523 0
128 529 0
-334 335 0
-410 411 0
-317 318 0
55 413 0
-253 254 0
-298 302 0
157 319 378 0
26 274 342 388 435 455 0
-319 320 0
-320 322 0
-420 421 0
62 523 0
4 413 446 451 496 0
-386 387 0
98 323 375 0
238 526 0
-165 407 0
-323 324 0
-371 380 0
140 413 0
-321 322 376 0
-421 422 0
-267 268 320 376 0
-39 325 327 330 336 380 446 454 496 0
-136 274 316 321 340 372 504 0
-333 334 382 0
-447 448 0
-47 413 0
-48 413 0
-53 413 0
-472 474 0
-537 538 0
-254 259 354 0
71 413 0
-72 413 0
-464 465 0
-75 413 0
77 413 0
-513 515 0
78 413 0
-363 371 0
-324 325 0
-266 269 0
-80 413 0
-179 413 0
-87 413 0
-428 430 0
-91 413 0
-14 353 529 0
-361 395 0
-398 399 0
-299 300 0
97 413 0
-190 413 0
-325 326 0
-362 363 0
-114 413 0
116 413 0
117 413 0
-118 413 0
-496 497 0
1 413 0
-128 413 0
220 413 0
-503 516 0
-129 413 0
-133 413 0
-517 518 0
-490 491 0
-135 413 0
-277 345 0
-146 413 0
-501 503 0
-28 426 0
147 413 464 492 0
-148 413 0
-160 413 0
-163 413 0
-312 315 0
-166 413 448 475 0
-172 413 0
-467 468 0
-176 413 0
-478 488 0
-474 475 0
-493 494 0
-446 447 0
-524 525 0
-523 524 0
-205 413 436 438 455 0
-211 413 0
-539 540 0
-378 379 0
-479 480 0
-492 493 0
-442 445 0
-449 450 0
-454 457 0
-459 460 479 0
21 442 443 0
237 413 0
-55 504 0
-423 424 0
-238 413 0
245 413 0
-413 419 0
-461 462 0
144 414 0
-414 418 0
-51 415 0
51 415 0
123 275 319 375 0
-416 418 0
-161 417 446 458 472 478 0
-417 418 0
-433 434 0
17 420 0
-85 422 0
-5 413 501 0
-318 324 0
-110 413 0
-422 424 0
-263 264 0
205 438 0
152 423 0
-439 440 0
156 425 0
-138 429 537 0
-408 409 0
-429 430 0
-430 431 0
-119 413 0
-432 433 0
-452 453 0
-435 436 0
-437 441 0
214 514 0
-438 439 0
-440 441 0
-83 413 0
-16 442 0
-443 444 0
-219 416 0
-444 445 0
-147 446 462 472 489 0
-237 504 0
-448 468 0
-441 447 453 497 0
-4 450 455 0
-450 452 0
-497 498 0
-451 452 0
14 399 0
-455 456 0
224 504 0
-456 457 0
-458 461 0
-158 413 0
-460 461 0
-229 413 0
-462 465 0
-463 464 0
-465 466 0
-468 470 0
-469 470 0
149 473 485 0
-470 471 0
-124 471 0
-473 474 477 491 0
-475 495 0
-477 478 0
-174 286 303 328 336 368 526 0
-481 482 0
53 529 0
-482 484 0
-487 488 0
-488 489 0
-62 413 0
-494 495 0
-495 497 0
